c "65725.clq"
p edge 100 1344
e 1 17
e 1 18
e 1 19
e 1 20
e 1 22
e 1 24
e 1 25
e 1 26
e 1 30
e 1 34
e 1 40
e 1 42
e 1 43
e 1 45
e 1 48
e 1 58
e 1 66
e 1 68
e 1 78
e 1 85
e 1 86
e 1 89
e 2 17
e 2 18
e 2 19
e 2 20
e 2 21
e 2 23
e 2 27
e 2 28
e 2 32
e 2 34
e 2 36
e 2 39
e 2 40
e 2 46
e 2 52
e 2 54
e 2 55
e 2 59
e 2 60
e 2 69
e 2 74
e 2 88
e 2 100
e 3 17
e 3 18
e 3 19
e 3 21
e 3 28
e 3 29
e 3 30
e 3 32
e 3 37
e 3 39
e 3 41
e 3 45
e 3 52
e 3 54
e 3 55
e 3 57
e 3 58
e 3 62
e 3 70
e 3 78
e 3 90
e 3 91
e 3 96
e 3 99
e 4 17
e 4 18
e 4 24
e 4 31
e 4 37
e 4 44
e 4 46
e 4 54
e 4 60
e 4 62
e 4 75
e 4 78
e 4 79
e 4 87
e 4 98
e 5 17
e 5 18
e 5 19
e 5 20
e 5 21
e 5 22
e 5 24
e 5 26
e 5 28
e 5 30
e 5 33
e 5 35
e 5 37
e 5 39
e 5 40
e 5 42
e 5 44
e 5 46
e 5 53
e 5 54
e 5 56
e 5 63
e 5 66
e 5 67
e 5 70
e 5 91
e 6 17
e 6 18
e 6 19
e 6 20
e 6 22
e 6 23
e 6 24
e 6 25
e 6 27
e 6 28
e 6 30
e 6 31
e 6 33
e 6 34
e 6 35
e 6 36
e 6 38
e 6 40
e 6 43
e 6 45
e 6 49
e 6 50
e 6 52
e 6 60
e 6 62
e 6 63
e 6 65
e 6 67
e 6 71
e 6 74
e 6 75
e 6 76
e 6 77
e 6 78
e 6 80
e 6 82
e 6 89
e 6 94
e 6 98
e 6 100
e 7 17
e 7 19
e 7 20
e 7 21
e 7 22
e 7 23
e 7 24
e 7 25
e 7 26
e 7 27
e 7 28
e 7 29
e 7 30
e 7 34
e 7 35
e 7 36
e 7 37
e 7 42
e 7 43
e 7 46
e 7 47
e 7 53
e 7 54
e 7 56
e 7 58
e 7 62
e 7 64
e 7 68
e 7 85
e 7 86
e 7 93
e 7 95
e 7 100
e 8 17
e 8 18
e 8 19
e 8 20
e 8 21
e 8 22
e 8 23
e 8 24
e 8 25
e 8 26
e 8 27
e 8 28
e 8 29
e 8 30
e 8 31
e 8 33
e 8 36
e 8 37
e 8 38
e 8 41
e 8 47
e 8 49
e 8 50
e 8 53
e 8 55
e 8 57
e 8 58
e 8 65
e 8 66
e 8 67
e 8 69
e 8 77
e 8 81
e 8 82
e 8 91
e 8 92
e 8 94
e 9 17
e 9 18
e 9 19
e 9 20
e 9 21
e 9 22
e 9 23
e 9 24
e 9 25
e 9 29
e 9 30
e 9 33
e 9 36
e 9 37
e 9 40
e 9 41
e 9 42
e 9 43
e 9 44
e 9 54
e 9 55
e 9 57
e 9 63
e 9 65
e 9 67
e 9 70
e 9 78
e 9 87
e 9 90
e 9 95
e 9 97
e 9 98
e 10 17
e 10 18
e 10 19
e 10 20
e 10 22
e 10 23
e 10 24
e 10 26
e 10 29
e 10 30
e 10 32
e 10 40
e 10 41
e 10 47
e 10 50
e 10 63
e 10 91
e 10 92
e 10 94
e 10 97
e 11 17
e 11 18
e 11 20
e 11 21
e 11 22
e 11 26
e 11 29
e 11 33
e 11 39
e 11 41
e 11 46
e 11 49
e 11 50
e 11 56
e 11 60
e 11 65
e 11 67
e 11 77
e 11 87
e 11 88
e 11 95
e 11 96
e 11 97
e 11 99
e 12 17
e 12 18
e 12 19
e 12 20
e 12 21
e 12 23
e 12 24
e 12 25
e 12 27
e 12 33
e 12 37
e 12 38
e 12 40
e 12 47
e 12 50
e 12 60
e 12 72
e 12 73
e 12 75
e 12 77
e 12 78
e 12 79
e 12 82
e 12 83
e 12 84
e 12 96
e 13 17
e 13 18
e 13 19
e 13 20
e 13 21
e 13 23
e 13 25
e 13 26
e 13 28
e 13 30
e 13 31
e 13 32
e 13 34
e 13 39
e 13 41
e 13 48
e 13 52
e 13 57
e 13 61
e 13 68
e 13 73
e 13 75
e 13 76
e 13 80
e 13 90
e 13 93
e 13 98
e 13 100
e 14 17
e 14 18
e 14 19
e 14 21
e 14 22
e 14 23
e 14 25
e 14 27
e 14 29
e 14 32
e 14 33
e 14 35
e 14 36
e 14 38
e 14 47
e 14 49
e 14 54
e 14 55
e 14 57
e 14 59
e 14 62
e 14 63
e 14 65
e 14 68
e 14 72
e 14 79
e 14 83
e 14 92
e 15 17
e 15 18
e 15 19
e 15 20
e 15 21
e 15 22
e 15 23
e 15 24
e 15 27
e 15 29
e 15 33
e 15 35
e 15 43
e 15 44
e 15 46
e 15 55
e 15 66
e 15 81
e 15 82
e 15 88
e 15 92
e 15 100
e 16 17
e 16 18
e 16 19
e 16 20
e 16 21
e 16 22
e 16 28
e 16 29
e 16 34
e 16 35
e 16 36
e 16 45
e 16 47
e 16 49
e 16 50
e 16 51
e 16 61
e 16 85
e 17 18
e 17 19
e 17 20
e 17 21
e 17 22
e 17 23
e 17 25
e 17 26
e 17 27
e 17 28
e 17 29
e 17 30
e 17 32
e 17 34
e 17 35
e 17 36
e 17 38
e 17 39
e 17 41
e 17 46
e 17 47
e 17 51
e 17 52
e 17 53
e 17 56
e 17 57
e 17 61
e 17 63
e 17 65
e 17 67
e 17 69
e 17 71
e 17 74
e 17 75
e 17 78
e 17 80
e 17 81
e 17 82
e 17 83
e 17 86
e 17 87
e 17 94
e 17 96
e 17 99
e 18 19
e 18 20
e 18 21
e 18 22
e 18 23
e 18 24
e 18 25
e 18 26
e 18 27
e 18 28
e 18 29
e 18 30
e 18 31
e 18 32
e 18 34
e 18 36
e 18 39
e 18 40
e 18 41
e 18 43
e 18 44
e 18 46
e 18 47
e 18 48
e 18 49
e 18 50
e 18 51
e 18 52
e 18 53
e 18 54
e 18 56
e 18 57
e 18 58
e 18 64
e 18 65
e 18 66
e 18 70
e 18 71
e 18 72
e 18 73
e 18 76
e 18 77
e 18 79
e 18 80
e 18 83
e 18 87
e 18 90
e 18 93
e 18 95
e 19 20
e 19 21
e 19 22
e 19 23
e 19 24
e 19 25
e 19 26
e 19 27
e 19 28
e 19 29
e 19 31
e 19 32
e 19 34
e 19 35
e 19 36
e 19 39
e 19 42
e 19 43
e 19 44
e 19 45
e 19 49
e 19 50
e 19 52
e 19 56
e 19 57
e 19 58
e 19 59
e 19 60
e 19 62
e 19 65
e 19 66
e 19 74
e 19 79
e 19 82
e 19 86
e 19 98
e 19 99
e 20 21
e 20 22
e 20 23
e 20 24
e 20 25
e 20 26
e 20 27
e 20 29
e 20 31
e 20 32
e 20 33
e 20 34
e 20 35
e 20 36
e 20 38
e 20 39
e 20 40
e 20 41
e 20 43
e 20 44
e 20 46
e 20 47
e 20 55
e 20 56
e 20 57
e 20 62
e 20 64
e 20 66
e 20 67
e 20 71
e 20 72
e 20 74
e 20 75
e 20 78
e 20 82
e 20 84
e 20 89
e 20 92
e 21 22
e 21 23
e 21 24
e 21 25
e 21 26
e 21 27
e 21 28
e 21 31
e 21 32
e 21 34
e 21 35
e 21 36
e 21 38
e 21 39
e 21 41
e 21 42
e 21 43
e 21 48
e 21 49
e 21 50
e 21 51
e 21 53
e 21 55
e 21 56
e 21 58
e 21 60
e 21 61
e 21 67
e 21 69
e 21 70
e 21 72
e 21 73
e 21 75
e 21 78
e 21 79
e 21 80
e 21 81
e 21 84
e 21 85
e 21 89
e 21 92
e 21 93
e 21 97
e 22 23
e 22 24
e 22 25
e 22 26
e 22 27
e 22 29
e 22 30
e 22 31
e 22 32
e 22 33
e 22 35
e 22 37
e 22 39
e 22 40
e 22 42
e 22 43
e 22 45
e 22 48
e 22 54
e 22 55
e 22 57
e 22 58
e 22 59
e 22 60
e 22 63
e 22 65
e 22 66
e 22 67
e 22 68
e 22 75
e 22 76
e 22 78
e 22 84
e 22 85
e 22 88
e 22 90
e 22 92
e 22 95
e 22 96
e 22 98
e 22 99
e 23 24
e 23 25
e 23 26
e 23 28
e 23 30
e 23 31
e 23 32
e 23 33
e 23 34
e 23 35
e 23 36
e 23 37
e 23 41
e 23 44
e 23 45
e 23 49
e 23 52
e 23 55
e 23 56
e 23 57
e 23 64
e 23 65
e 23 66
e 23 71
e 23 80
e 23 82
e 23 91
e 24 25
e 24 26
e 24 27
e 24 28
e 24 32
e 24 34
e 24 36
e 24 37
e 24 41
e 24 42
e 24 45
e 24 46
e 24 51
e 24 53
e 24 59
e 24 63
e 24 64
e 24 73
e 24 74
e 24 77
e 24 83
e 24 89
e 24 94
e 24 95
e 24 98
e 24 99
e 24 100
e 25 26
e 25 27
e 25 29
e 25 31
e 25 33
e 25 34
e 25 38
e 25 42
e 25 44
e 25 47
e 25 50
e 25 52
e 25 53
e 25 59
e 25 64
e 25 65
e 25 69
e 25 70
e 25 71
e 25 72
e 25 73
e 25 75
e 25 80
e 25 85
e 25 93
e 25 99
e 25 100
e 26 27
e 26 28
e 26 30
e 26 31
e 26 34
e 26 35
e 26 37
e 26 38
e 26 39
e 26 41
e 26 43
e 26 46
e 26 48
e 26 54
e 26 55
e 26 59
e 26 61
e 26 70
e 26 74
e 26 79
e 26 82
e 26 84
e 26 85
e 26 87
e 26 94
e 26 95
e 26 97
e 26 98
e 26 99
e 26 100
e 27 28
e 27 29
e 27 30
e 27 31
e 27 32
e 27 33
e 27 40
e 27 43
e 27 45
e 27 46
e 27 47
e 27 49
e 27 51
e 27 58
e 27 59
e 27 62
e 27 64
e 27 70
e 27 79
e 27 82
e 27 92
e 27 95
e 28 30
e 28 31
e 28 33
e 28 44
e 28 48
e 28 50
e 28 51
e 28 55
e 28 56
e 28 59
e 28 61
e 28 71
e 28 76
e 28 79
e 28 90
e 28 96
e 29 31
e 29 33
e 29 34
e 29 35
e 29 37
e 29 38
e 29 39
e 29 42
e 29 44
e 29 45
e 29 47
e 29 48
e 29 52
e 29 53
e 29 62
e 29 70
e 29 72
e 29 79
e 29 82
e 29 86
e 29 92
e 30 31
e 30 32
e 30 35
e 30 37
e 30 38
e 30 39
e 30 44
e 30 48
e 30 50
e 30 51
e 30 54
e 30 56
e 30 61
e 30 72
e 30 83
e 30 90
e 30 94
e 30 95
e 31 32
e 31 35
e 31 37
e 31 38
e 31 42
e 31 44
e 31 45
e 31 46
e 31 48
e 31 49
e 31 52
e 31 54
e 31 56
e 31 60
e 31 69
e 31 70
e 31 73
e 31 74
e 31 80
e 31 82
e 31 83
e 31 84
e 31 86
e 31 99
e 32 33
e 32 36
e 32 37
e 32 38
e 32 39
e 32 40
e 32 42
e 32 43
e 32 44
e 32 45
e 32 48
e 32 53
e 32 58
e 32 61
e 32 62
e 32 63
e 32 64
e 32 68
e 32 72
e 32 80
e 32 81
e 32 85
e 32 86
e 32 93
e 33 36
e 33 38
e 33 39
e 33 40
e 33 43
e 33 48
e 33 61
e 33 63
e 33 65
e 33 77
e 33 85
e 33 87
e 33 91
e 34 38
e 34 40
e 34 42
e 34 46
e 34 47
e 34 50
e 34 51
e 34 52
e 34 53
e 34 58
e 34 59
e 34 61
e 34 71
e 34 72
e 34 73
e 34 77
e 34 81
e 34 82
e 34 84
e 34 88
e 35 37
e 35 41
e 35 42
e 35 44
e 35 45
e 35 46
e 35 49
e 35 50
e 35 52
e 35 57
e 35 63
e 35 64
e 35 77
e 35 88
e 35 89
e 35 97
e 36 41
e 36 48
e 36 50
e 36 51
e 36 59
e 36 61
e 36 64
e 36 66
e 36 68
e 36 69
e 36 72
e 36 82
e 36 86
e 36 88
e 36 91
e 36 93
e 37 38
e 37 40
e 37 42
e 37 43
e 37 48
e 37 51
e 37 60
e 37 63
e 37 65
e 37 68
e 37 69
e 37 72
e 37 74
e 37 76
e 37 78
e 37 79
e 37 83
e 37 86
e 37 89
e 37 91
e 37 97
e 37 98
e 38 41
e 38 43
e 38 52
e 38 53
e 38 58
e 38 60
e 38 62
e 38 63
e 38 65
e 38 70
e 38 72
e 38 76
e 38 80
e 38 83
e 38 94
e 38 97
e 39 40
e 39 42
e 39 45
e 39 63
e 39 69
e 39 70
e 39 90
e 39 95
e 40 51
e 40 54
e 40 55
e 40 67
e 40 70
e 40 73
e 40 75
e 40 83
e 40 96
e 40 100
e 41 45
e 41 47
e 41 52
e 41 54
e 41 57
e 41 64
e 41 66
e 41 67
e 41 68
e 41 70
e 41 75
e 41 82
e 41 83
e 41 84
e 41 85
e 41 87
e 41 88
e 41 99
e 42 44
e 42 49
e 42 50
e 42 52
e 42 53
e 42 60
e 42 61
e 42 69
e 42 75
e 42 77
e 42 81
e 42 86
e 42 91
e 42 100
e 43 47
e 43 48
e 43 49
e 43 56
e 43 58
e 43 62
e 43 67
e 43 76
e 43 78
e 43 80
e 43 92
e 43 94
e 44 45
e 44 46
e 44 48
e 44 51
e 44 53
e 44 68
e 44 71
e 44 74
e 44 75
e 44 76
e 44 80
e 44 81
e 44 85
e 44 89
e 44 95
e 44 96
e 44 97
e 44 99
e 45 51
e 45 53
e 45 59
e 45 73
e 45 76
e 45 81
e 45 88
e 45 89
e 45 92
e 45 95
e 46 47
e 46 60
e 46 65
e 46 67
e 46 68
e 46 74
e 46 79
e 46 87
e 46 90
e 46 96
e 46 97
e 46 98
e 47 49
e 47 55
e 47 56
e 47 60
e 47 62
e 47 65
e 47 66
e 47 68
e 47 76
e 47 77
e 47 84
e 47 88
e 47 90
e 47 94
e 48 49
e 48 51
e 48 62
e 48 76
e 48 79
e 48 85
e 48 93
e 49 51
e 49 53
e 49 55
e 49 59
e 49 60
e 49 62
e 49 64
e 49 74
e 49 78
e 49 87
e 49 90
e 49 91
e 49 94
e 49 96
e 49 98
e 49 100
e 50 55
e 50 57
e 50 58
e 50 69
e 50 75
e 50 76
e 50 81
e 50 83
e 50 84
e 50 87
e 50 91
e 50 97
e 50 98
e 51 57
e 51 58
e 51 63
e 51 66
e 51 70
e 51 71
e 51 72
e 51 77
e 51 78
e 51 85
e 51 86
e 51 89
e 51 91
e 52 54
e 52 59
e 52 66
e 52 74
e 52 77
e 52 81
e 52 83
e 52 95
e 52 96
e 53 54
e 53 56
e 53 68
e 53 72
e 53 73
e 53 84
e 53 89
e 53 91
e 54 59
e 54 61
e 54 67
e 54 68
e 54 72
e 54 78
e 54 79
e 54 88
e 54 89
e 54 94
e 55 56
e 55 61
e 55 69
e 55 81
e 55 84
e 56 57
e 56 58
e 56 59
e 56 61
e 56 66
e 56 67
e 56 69
e 56 71
e 56 74
e 56 76
e 56 79
e 56 80
e 56 88
e 56 90
e 56 91
e 56 96
e 56 99
e 57 60
e 57 61
e 57 62
e 57 64
e 57 66
e 57 71
e 57 83
e 57 84
e 57 85
e 57 86
e 57 93
e 57 98
e 58 67
e 58 68
e 58 71
e 58 75
e 58 76
e 58 77
e 58 80
e 58 81
e 58 92
e 59 63
e 59 69
e 59 73
e 59 79
e 59 88
e 59 89
e 59 97
e 60 64
e 60 89
e 60 93
e 60 95
e 60 99
e 61 64
e 61 71
e 61 74
e 61 81
e 61 91
e 62 64
e 62 68
e 62 69
e 62 70
e 62 71
e 62 73
e 62 74
e 62 86
e 62 92
e 62 94
e 62 95
e 63 73
e 63 75
e 63 82
e 63 89
e 64 87
e 64 92
e 64 93
e 64 96
e 64 99
e 65 91
e 65 97
e 66 73
e 66 80
e 66 93
e 66 98
e 66 100
e 67 73
e 67 76
e 67 84
e 67 88
e 67 90
e 67 97
e 68 69
e 68 71
e 68 89
e 68 94
e 69 80
e 69 83
e 69 86
e 69 94
e 71 78
e 72 77
e 72 87
e 72 98
e 73 92
e 73 93
e 73 96
e 73 97
e 73 100
e 74 86
e 75 90
e 75 96
e 76 77
e 76 81
e 77 81
e 77 87
e 77 100
e 78 83
e 78 84
e 78 85
e 79 87
e 80 84
e 80 85
e 80 100
e 81 90
e 81 93
e 82 86
e 82 87
e 82 88
e 83 94
e 84 88
e 84 90
e 85 97
e 85 99
e 85 100
e 86 92
e 87 99
e 88 93
e 90 93
e 91 95
e 95 96
e 97 98
